run_type construct

species_number 2
input_file    chain.mol   mono.mol   
concentrations    20.00 80.00
place 1 4
bead_type 1 O
bead_type 2 N

dpd_density 3.0
box_size 50 50 50

steps_1 0
steps_2 0
steps_3 10000000

timestep 0.04

valency 1 0
valency 2 0

pair_coeff 1 1 150.0
pair_coeff 1 2 160.0
pair_coeff 2 2 150.0
chem_coeff 1 1 0.0 0.0
bond_template 0 0 0.2 150.0

output_freq 100000

sqf 10000000
restart 1000000
vtk 100000000
end